NAME: I21487-n78-k8
COMMENT : (Fake et al, No of trucks: 8, Optimal value: )
TYPE : CVRP
DIMENSION : 78
EDGE_WEIGHT_TYPE : EUC_2D
CAPACITY : 11
NODE_COORD_SECTION
1 24 474
2 270 786
3 557 56
4 382 590
5 423 538
6 9 964
7 678 435
8 964 642
9 640 231
10 337 932
11 368 732
12 613 69
13 422 189
14 637 550
15 877 436
16 75 723
17 19 148
18 495 708
19 851 283
20 221 535
21 587 380
22 205 260
23 837 627
24 524 792
25 235 305
26 980 324
27 688 464
28 821 335
29 262 58
30 57 941
31 506 208
32 161 89
33 888 908
34 608 539
35 568 757
36 679 131
37 293 531
38 987 799
39 661 707
40 796 796
41 268 798
42 522 59
43 675 57
44 649 322
45 210 597
46 642 670
47 846 1000
48 682 545
49 714 227
50 926 921
51 33 453
52 882 968
53 55 299
54 115 418
55 376 239
56 718 936
57 330 864
58 12 567
59 471 296
60 142 171
61 931 979
62 821 74
63 782 813
64 324 446
65 473 705
66 931 695
67 451 597
68 218 510
69 914 813
70 148 703
71 128 356
72 556 250
73 730 15
74 917 529
75 679 605
76 527 564
77 312 438
78 127 625
DEMAND_SECTION
1 0
2 1
3 1
4 1
5 1
6 1
7 1
8 1
9 1
10 1
11 1
12 1
13 1
14 1
15 1
16 1
17 1
18 1
19 1
20 1
21 1
22 1
23 1
24 1
25 1
26 1
27 1
28 1
29 1
30 1
31 1
32 1
33 1
34 1
35 1
36 1
37 1
38 1
39 1
40 1
41 1
42 1
43 1
44 1
45 1
46 1
47 1
48 1
49 1
50 1
51 1
52 1
53 1
54 1
55 1
56 1
57 1
58 1
59 1
60 1
61 1
62 1
63 1
64 1
65 1
66 1
67 1
68 1
69 1
70 1
71 1
72 1
73 1
74 1
75 1
76 1
77 1
78 1
DEPOT_SECTION
 1
 -1
 EOF 